c n orig vars 96
p cnf 98 310
1 2 -97 0
3 4 -97 0
5 6 -97 0
7 8 -97 0
9 10 -97 0
11 12 -97 0
13 14 -97 0
15 16 -97 0
17 18 -97 0
19 20 -97 0
21 22 -97 0
23 24 -97 0
25 34 43 52 61 70 79 88 -98 0
26 35 44 53 62 71 80 89 -98 0
27 36 45 54 63 72 81 90 -98 0
28 37 46 55 64 73 82 91 -98 0
29 38 47 56 65 74 83 92 -98 0
30 39 48 57 66 75 84 93 -98 0
31 40 49 58 67 76 85 94 -98 0
32 41 50 59 68 77 86 95 -98 0
33 42 51 60 69 78 87 96 -98 0
-25 -26 -98 0
-25 -27 -98 0
-25 -28 -98 0
-25 -29 -98 0
-25 -30 -98 0
-25 -31 -98 0
-25 -32 -98 0
-25 -33 -98 0
-26 -27 -98 0
-26 -28 -98 0
-26 -29 -98 0
-26 -30 -98 0
-26 -31 -98 0
-26 -32 -98 0
-26 -33 -98 0
-27 -28 -98 0
-27 -29 -98 0
-27 -30 -98 0
-27 -31 -98 0
-27 -32 -98 0
-27 -33 -98 0
-28 -29 -98 0
-28 -30 -98 0
-28 -31 -98 0
-28 -32 -98 0
-28 -33 -98 0
-29 -30 -98 0
-29 -31 -98 0
-29 -32 -98 0
-29 -33 -98 0
-30 -31 -98 0
-30 -32 -98 0
-30 -33 -98 0
-31 -32 -98 0
-31 -33 -98 0
-32 -33 -98 0
-34 -35 -98 0
-34 -36 -98 0
-34 -37 -98 0
-34 -38 -98 0
-34 -39 -98 0
-34 -40 -98 0
-34 -41 -98 0
-34 -42 -98 0
-35 -36 -98 0
-35 -37 -98 0
-35 -38 -98 0
-35 -39 -98 0
-35 -40 -98 0
-35 -41 -98 0
-35 -42 -98 0
-36 -37 -98 0
-36 -38 -98 0
-36 -39 -98 0
-36 -40 -98 0
-36 -41 -98 0
-36 -42 -98 0
-37 -38 -98 0
-37 -39 -98 0
-37 -40 -98 0
-37 -41 -98 0
-37 -42 -98 0
-38 -39 -98 0
-38 -40 -98 0
-38 -41 -98 0
-38 -42 -98 0
-39 -40 -98 0
-39 -41 -98 0
-39 -42 -98 0
-40 -41 -98 0
-40 -42 -98 0
-41 -42 -98 0
-43 -44 -98 0
-43 -45 -98 0
-43 -46 -98 0
-43 -47 -98 0
-43 -48 -98 0
-43 -49 -98 0
-43 -50 -98 0
-43 -51 -98 0
-44 -45 -98 0
-44 -46 -98 0
-44 -47 -98 0
-44 -48 -98 0
-44 -49 -98 0
-44 -50 -98 0
-44 -51 -98 0
-45 -46 -98 0
-45 -47 -98 0
-45 -48 -98 0
-45 -49 -98 0
-45 -50 -98 0
-45 -51 -98 0
-46 -47 -98 0
-46 -48 -98 0
-46 -49 -98 0
-46 -50 -98 0
-46 -51 -98 0
-47 -48 -98 0
-47 -49 -98 0
-47 -50 -98 0
-47 -51 -98 0
-48 -49 -98 0
-48 -50 -98 0
-48 -51 -98 0
-49 -50 -98 0
-49 -51 -98 0
-50 -51 -98 0
-52 -53 -98 0
-52 -54 -98 0
-52 -55 -98 0
-52 -56 -98 0
-52 -57 -98 0
-52 -58 -98 0
-52 -59 -98 0
-52 -60 -98 0
-53 -54 -98 0
-53 -55 -98 0
-53 -56 -98 0
-53 -57 -98 0
-53 -58 -98 0
-53 -59 -98 0
-53 -60 -98 0
-54 -55 -98 0
-54 -56 -98 0
-54 -57 -98 0
-54 -58 -98 0
-54 -59 -98 0
-54 -60 -98 0
-55 -56 -98 0
-55 -57 -98 0
-55 -58 -98 0
-55 -59 -98 0
-55 -60 -98 0
-56 -57 -98 0
-56 -58 -98 0
-56 -59 -98 0
-56 -60 -98 0
-57 -58 -98 0
-57 -59 -98 0
-57 -60 -98 0
-58 -59 -98 0
-58 -60 -98 0
-59 -60 -98 0
-61 -62 -98 0
-61 -63 -98 0
-61 -64 -98 0
-61 -65 -98 0
-61 -66 -98 0
-61 -67 -98 0
-61 -68 -98 0
-61 -69 -98 0
-62 -63 -98 0
-62 -64 -98 0
-62 -65 -98 0
-62 -66 -98 0
-62 -67 -98 0
-62 -68 -98 0
-62 -69 -98 0
-63 -64 -98 0
-63 -65 -98 0
-63 -66 -98 0
-63 -67 -98 0
-63 -68 -98 0
-63 -69 -98 0
-64 -65 -98 0
-64 -66 -98 0
-64 -67 -98 0
-64 -68 -98 0
-64 -69 -98 0
-65 -66 -98 0
-65 -67 -98 0
-65 -68 -98 0
-65 -69 -98 0
-66 -67 -98 0
-66 -68 -98 0
-66 -69 -98 0
-67 -68 -98 0
-67 -69 -98 0
-68 -69 -98 0
-70 -71 -98 0
-70 -72 -98 0
-70 -73 -98 0
-70 -74 -98 0
-70 -75 -98 0
-70 -76 -98 0
-70 -77 -98 0
-70 -78 -98 0
-71 -72 -98 0
-71 -73 -98 0
-71 -74 -98 0
-71 -75 -98 0
-71 -76 -98 0
-71 -77 -98 0
-71 -78 -98 0
-72 -73 -98 0
-72 -74 -98 0
-72 -75 -98 0
-72 -76 -98 0
-72 -77 -98 0
-72 -78 -98 0
-73 -74 -98 0
-73 -75 -98 0
-73 -76 -98 0
-73 -77 -98 0
-73 -78 -98 0
-74 -75 -98 0
-74 -76 -98 0
-74 -77 -98 0
-74 -78 -98 0
-75 -76 -98 0
-75 -77 -98 0
-75 -78 -98 0
-76 -77 -98 0
-76 -78 -98 0
-77 -78 -98 0
-79 -80 -98 0
-79 -81 -98 0
-79 -82 -98 0
-79 -83 -98 0
-79 -84 -98 0
-79 -85 -98 0
-79 -86 -98 0
-79 -87 -98 0
-80 -81 -98 0
-80 -82 -98 0
-80 -83 -98 0
-80 -84 -98 0
-80 -85 -98 0
-80 -86 -98 0
-80 -87 -98 0
-81 -82 -98 0
-81 -83 -98 0
-81 -84 -98 0
-81 -85 -98 0
-81 -86 -98 0
-81 -87 -98 0
-82 -83 -98 0
-82 -84 -98 0
-82 -85 -98 0
-82 -86 -98 0
-82 -87 -98 0
-83 -84 -98 0
-83 -85 -98 0
-83 -86 -98 0
-83 -87 -98 0
-84 -85 -98 0
-84 -86 -98 0
-84 -87 -98 0
-85 -86 -98 0
-85 -87 -98 0
-86 -87 -98 0
-88 -89 -98 0
-88 -90 -98 0
-88 -91 -98 0
-88 -92 -98 0
-88 -93 -98 0
-88 -94 -98 0
-88 -95 -98 0
-88 -96 -98 0
-89 -90 -98 0
-89 -91 -98 0
-89 -92 -98 0
-89 -93 -98 0
-89 -94 -98 0
-89 -95 -98 0
-89 -96 -98 0
-90 -91 -98 0
-90 -92 -98 0
-90 -93 -98 0
-90 -94 -98 0
-90 -95 -98 0
-90 -96 -98 0
-91 -92 -98 0
-91 -93 -98 0
-91 -94 -98 0
-91 -95 -98 0
-91 -96 -98 0
-92 -93 -98 0
-92 -94 -98 0
-92 -95 -98 0
-92 -96 -98 0
-93 -94 -98 0
-93 -95 -98 0
-93 -96 -98 0
-94 -95 -98 0
-94 -96 -98 0
-95 -96 -98 0
97 98 0
